;; Original file: term_284.smt2
(set-logic HORN)
(declare-fun starexecinv1 (Real Real Real Real) Bool)

(assert (forall ((|gh0prime| Real)
         (|XXX0prime| Real)
         (|XXX1prime| Real)
         (|XXX2prime| Real))
  (let ((a!1 (> |gh0prime| (* (+ 0 (- 1)) |XXX0prime|)))
        (a!2 (> |gh0prime| (* (+ 0 (- 1)) |XXX1prime|)))
        (a!3 (> |gh0prime| (* (+ 0 (- 1)) |XXX2prime|)))
        (a!4 (+ (* (+ 0 (- 1)) |XXX0prime|) (* (+ 0 1) |XXX2prime|)))
        (a!5 (+ (* (+ 0 1) |XXX0prime|) (* (+ 0 (- 1)) |XXX2prime|)))
        (a!6 (> |gh0prime| (+ (* (+ 0 1) |XXX1prime|) (+ 0 10))))
        (a!7 (+ (* (+ 0 1) |XXX1prime|)
                (* (+ 0 (- 1)) |XXX2prime|)
                (+ 0 1)))
        (a!8 (+ (* (+ 0 1) |XXX0prime|)
                (* (+ 0 (- 1)) |XXX1prime|)
                (* (+ 0 (- 1)) |XXX2prime|)
                (+ 0 10)))
        (a!9 (+ (* (+ 0 (- 1)) |XXX0prime|)
                (* (+ 0 (- 1)) |XXX1prime|)
                (* (+ 0 (- 1)) |XXX2prime|)
                (+ 0 10)))
        (a!10 (> |gh0prime|
                 (+ (* (+ 0 1) |XXX0prime|)
                    (* (+ 0 1) |XXX1prime|)
                    (* (+ 0 1) |XXX2prime|)
                    (+ 0 10))))
        (a!11 (+ (* (+ 0 (- 1)) |XXX0prime|)
                 (* (+ 0 1) |XXX1prime|)
                 (* (+ 0 (- 1)) |XXX2prime|)
                 (+ 0 10))))
    (=> (and true
             (> |gh0prime| |XXX0prime|)
             (> |gh0prime| |XXX1prime|)
             (> |gh0prime| |XXX2prime|)
             a!1
             a!2
             a!3
             (> |gh0prime| (+ 0 10))
             (> |gh0prime| a!4)
             (> |gh0prime| a!5)
             a!6
             (> |gh0prime| a!7)
             (> |gh0prime| a!8)
             (> |gh0prime| a!9)
             a!10
             (> |gh0prime| a!11))
        (starexecinv1 |XXX0prime| |XXX1prime| |XXX2prime| |gh0prime|)))))
(assert (forall ((|XXX0| Real)
         (|XXX1| Real)
         (|XXX2| Real)
         (gh0 Real)
         (|XXX1prime| Real)
         (|XXX2prime| Real)
         (r Real)
         (|XXX0prime| Real)
         (|gh0prime| Real))
  (let ((a!1 (and (starexecinv1 |XXX0| |XXX1| |XXX2| gh0)
                  (>= (- |XXX1| |XXX2|) (+ 0 1))
                  (= |XXX0| |XXX2|)
                  (= |XXX1prime| (+ 0 10))
                  (= |XXX2prime| (+ |XXX2prime| (+ 0 1) r))
                  (= |XXX0prime| |XXX2prime|)
                  (= |gh0prime| (- gh0 (+ 0 1)))
                  true)))
    (=> a!1 (starexecinv1 |XXX0prime| |XXX1prime| |XXX2prime| |gh0prime|)))))
(assert (forall ((|XXX0| Real)
         (|XXX1| Real)
         (|XXX2| Real)
         (gh0 Real)
         )
  (=> (and (starexecinv1 |XXX0| |XXX1| |XXX2| gh0)
           (>= (- |XXX1| |XXX2|) (+ 0 1))
           (= |XXX0| |XXX2|)
           (< gh0 (+ 0 0))
           true)
      false)))
(check-sat)
